600 -447990
900 -442353
1200 -442353
1500 -441691
1800 -440134
2100 -440134
2400 -440134
2700 -438796
3000 -436485
3300 -436485
3600 -436485
3900 -436485
4200 -436485
4500 -436485
4800 -436332
5100 -433085
5400 -432700
5700 -432700
6000 -427859
6300 -427859
6600 -427859
6900 -427859
7200 -427859
7500 -427859
7800 -427859
8100 -427859
8400 -427567
8700 -427567
9000 -427567
9300 -426232
9600 -423894
9900 -423894
10200 -423894
10500 -423894
10800 -423894
11100 -423582
11400 -423582
11700 -423485
12000 -423485
12300 -423485
12600 -423485
12900 -423485
13200 -423485
13500 -423485
13800 -423485
14100 -423485
14400 -423485
14700 -423485
15000 -423485
15300 -422138
15600 -422138
15900 -422138
16200 -422138
16500 -422138
16800 -422138
17100 -422138
17400 -422138
17700 -421541
18000 -420361
18300 -420361
18600 -420361
18900 -420361
19200 -420361
19500 -420361
19800 -420361
20100 -420361
20400 -420361
20700 -420361
